DIMENSION: 6
EDGE_WEIGHT_TYPE: EXPLICIT
EDGE_WEIGHT_FORMAT: FULL_MATRIX
EDGE_WEIGHT_SECTION:
32767 67 48 32767 16 32767 
67 32767 96 32767 32767 32767 
48 96 32767 32767 20 32767 
32767 32767 32767 32767 32767 13 
16 32767 20 32767 32767 27 
32767 32767 32767 13 27 32767 
EOF